0 5974 
1 5954 
2 5942 
3 5934 
4 5922 
5 5918 
6 5910 
7 5902 
8 5898 
9 5894 
10 5886 
11 5878 
12 5866 
13 5866 
14 5838 
15 5828 
16 5820 
17 5818 
18 5818 
19 5818 
20 5804 
21 5800 
22 5796 
23 5792 
24 5788 
25 5780 
26 5772 
27 5768 
28 5764 
29 5752 
30 5748 
31 5740 
32 5738 
33 5734 
34 5730 
35 5710 
36 5696 
37 5688 
38 5676 
39 5666 
40 5662 
41 5654 
42 5644 
43 5634 
44 5618 
45 5608 
46 5594 
47 5584 
48 5582 
49 5578 
50 5572 
51 5540 
52 5538 
53 5528 
54 5524 
55 5520 
56 5518 
57 5518 
58 5518 
59 5510 
60 5508 
61 5508 
62 5504 
63 5496 
64 5488 
65 5484 
66 5480 
67 5476 
68 5476 
69 5476 
70 5476 
71 5468 
72 5466 
73 5460 
74 5452 
75 5440 
76 5438 
77 5414 
78 5412 
79 5412 

